peakDumbCharging = 7400; 
Machine = anon_enum(16); 
machineSpeed = [3700,3700,3700,3700,3700,3700,3700,3700,3700,3700,3700,3700,3700,3700,3700,3700]; 
machineLoad = [3700,3700,3700,3700,3700,3700,3700,3700,3700,3700,3700,3700,3700,3700,3700,3700]; 
Car = anon_enum(8); 
demandCar = [14920,11160,18800,15960,1960,23760,6760,8960]; 
arrivalCar = [69,67,61,58,57,49,46,39]; 
departureCar = [75,71,67,65,60,57,49,43]; 
